
Gurobi 9.5.0 (linux64, gurobi_cl) logging started Sat Nov 27 16:45:29 2021

Set parameter LogFile to value "gurobi.log"

Gurobi 9.5.0 (linux64, gurobi_cl) logging started Sat Nov 27 16:51:33 2021

Set parameter LogFile to value "gurobi.log"

Gurobi 9.5.0 (linux64, gurobi_cl) logging started Sun Nov 28 10:51:12 2021

Set parameter Username
Set parameter LogFile to value "gurobi.log"

Gurobi 9.5.0 (linux64, gurobi_cl) logging started Sun Nov 28 10:52:32 2021

Set parameter Username
Set parameter LogFile to value "gurobi.log"
Academic license - for non-commercial use only - expires 2022-01-26
Using license file /mnt/c/Users/sarda/Documents/Stanford/Research/21-22/Fall/gurobi950/linux64/gurobi.lic

Gurobi 9.5.0 (linux64, gurobi_cl) logging started Wed Dec  8 10:17:42 2021

Set parameter Username
Set parameter LogFile to value "gurobi.log"
Academic license - for non-commercial use only - expires 2022-02-05
Using license file /mnt/c/Users/sarda/Documents/Stanford/Research/21-22/Fall/gurobi950/linux64/gurobi.lic

Gurobi 9.5.0 (linux64, gurobi_cl) logging started Fri Dec 10 15:17:16 2021

Set parameter Username
Set parameter LogFile to value "gurobi.log"
Academic license - for non-commercial use only - expires 2022-02-07
Using license file /mnt/c/Users/sarda/Documents/Stanford/Research/21-22/Fall/gurobi950/linux64/gurobi.lic

Gurobi 9.5.0 (linux64, gurobi_cl) logging started Fri Dec 10 15:17:18 2021

Set parameter Username
Set parameter LogFile to value "gurobi.log"
Academic license - for non-commercial use only - expires 2022-02-07
Using license file /mnt/c/Users/sarda/Documents/Stanford/Research/21-22/Fall/gurobi950/linux64/gurobi.lic

Gurobi 9.5.0 (linux64, gurobi_cl) logging started Fri Dec 10 15:17:33 2021

Set parameter Username
Set parameter LogFile to value "gurobi.log"
Academic license - for non-commercial use only - expires 2022-02-07
Using license file /mnt/c/Users/sarda/Documents/Stanford/Research/21-22/Fall/gurobi950/linux64/gurobi.lic
